(set-logic empty)
(set-info :status unsat)
(declare-fun p () Bool)
(declare-fun q () Bool)
(declare-fun r () Bool)
(declare-fun s () Bool)
(assert (not (<=> (=> (and p (=> q r)) s) (and (or (not p) (or q s)) (or (not p) (or (not r) s))))))
(check-sat)
(exit)
